-64	-66	-65	-65	-64	-64	-64	-63	-65	-63
-245	-244	-244	-245	-246	-240	-245	-243	-244	-239
-536	-532	-529	-538	-527	-533	-531	-535	-530	-533
-929	-941	-934	-923	-932	-926	-929	-929	-925	-923
-1430	-1425	-1432	-1424	-1440	-1436	-1434	-1431	-1432	-1430
